508
3
92,62,6,14,45,77,17,5,46,75,67,11,2,52,12,42,49,71,29,86,38,1,82,41,17,90,41,98,5,3,96,77,51,6,52,41,54,89,50
43,51,34,65,78,27,57,38,30,81,79,26,42,67,51,31,84,3,23,87,95,75,25,57,82,8,76,34,53,38,74,48,15,3,95,94,88,4,22
3,2,3,2,3,2,1,2,2,1,1,2,1,2,3,3,2,3,2,1,1,3,1,2,1,1,3,1,1,1,1,3,1,1,1,1,3,2,3
